1958.78
0 71 20 59 24 51 68 0
0 16 63 41 37 34 58 0
0 49 3 17 46 27 75 0
0 60 70 54 7 44 33 0
0 65 66 8 35 50 0
0 56 43 73 4 26 0
0 62 64 25 72 11 0
0 1 42 40 39 30 0
0 9 55 19 13 48 0
0 53 67 21 6 0
0 12 32 31 14 0
0 15 57 29 5 47 36 22 0
0 23 61 28 74 45 52 0
0 38 10 18 2 69 0
